% seed = 9149860

mint = 50;
% maxt = 198;

nActs = 42;
dur = [0,3,7,4,7,3,2,2,3,4,8,1,1,6,6,4,3,6,5,10,3,7,7,6,8,5,2,1,5,4,2,6,9,9,9,6,10,1,5,3,5,0];

nSkills = 4;
sreq = [| 0,0,0,0,
	| 0,0,5,7,
	| 4,4,3,2,
	| 3,2,2,4,
	| 6,0,0,4,
	| 2,0,5,3,
	| 0,2,6,3,
	| 6,0,4,0,
	| 1,1,6,1,
	| 0,5,0,4,
	| 3,2,6,3,
	| 6,2,2,0,
	| 0,0,6,2,
	| 7,5,4,4,
	| 5,6,0,0,
	| 0,6,7,0,
	| 3,3,5,0,
	| 4,2,3,0,
	| 0,5,0,7,
	| 1,3,3,5,
	| 2,4,0,4,
	| 5,0,0,7,
	| 5,2,0,5,
	| 3,0,2,4,
	| 6,4,0,5,
	| 2,2,4,3,
	| 6,7,1,3,
	| 3,3,5,3,
	| 2,7,2,0,
	| 3,2,0,5,
	| 0,6,0,2,
	| 2,7,0,5,
	| 7,0,0,3,
	| 4,3,5,2,
	| 3,3,5,4,
	| 0,5,4,7,
	| 5,4,0,5,
	| 6,6,0,0,
	| 3,3,3,4,
	| 4,3,2,7,
	| 6,0,0,6,
	| 0,0,0,0, |];

nResources = 30;
mastery = [| true,false,false,false,
	| true,false,false,false,
	| false,false,true,false,
	| false,true,true,true,
	| false,false,true,true,
	| false,true,false,false,
	| true,false,true,true,
	| true,false,false,false,
	| false,false,false,true,
	| true,true,false,false,
	| true,true,false,false,
	| true,true,true,false,
	| true,true,false,false,
	| true,true,false,false,
	| false,true,true,true,
	| false,true,false,true,
	| true,false,true,false,
	| false,true,true,true,
	| true,true,false,false,
	| false,true,false,false,
	| true,true,true,false,
	| true,false,false,false,
	| true,false,true,true,
	| false,true,false,false,
	| false,true,true,false,
	| true,false,false,false,
	| true,true,true,false,
	| true,false,false,false,
	| true,false,false,false,
	| true,false,true,true, |];

nPrecs = 73;
pred = [1,1,1,2,2,2,3,3,3,4,4,4,5,6,6,7,7,8,8,9,9,9,10,10,10,11,11,12,12,12,13,14,15,15,15,16,16,16,17,17,18,18,19,19,20,20,20,21,21,22,23,24,25,26,26,27,28,28,28,29,30,31,32,33,34,35,36,36,37,38,39,40,41];
succ = [2,3,4,9,11,21,5,7,8,33,6,16,18,13,31,30,24,12,23,10,14,38,25,20,37,33,19,17,28,15,18,33,18,19,30,22,39,32,21,40,26,22,35,29,27,29,23,34,29,24,34,31,32,36,39,32,41,34,36,31,36,41,35,41,35,39,37,38,40,40,42,42,42];

nUnrels = 489;
unpred = [2,2,2,2,2,2,2,2,2,2,2,2,2,2,2,2,2,2,3,3,3,3,3,3,3,3,3,3,3,3,3,4,4,4,4,4,4,4,4,4,4,4,4,4,4,4,4,4,4,4,4,5,5,5,5,5,5,5,5,5,5,5,5,5,5,5,5,5,5,5,5,5,5,5,5,5,6,6,6,6,6,6,6,6,6,6,6,6,6,6,6,6,6,6,6,6,6,6,6,7,7,7,7,7,7,7,7,7,7,7,7,7,7,7,7,7,7,7,7,7,7,7,7,7,7,8,8,8,8,8,8,8,8,8,8,8,9,9,9,9,9,9,9,9,9,9,9,9,9,9,9,10,10,10,10,10,10,10,10,10,10,10,10,10,10,10,10,10,10,11,11,11,11,11,11,11,11,11,11,11,11,11,11,11,11,11,11,11,11,11,11,11,12,12,12,12,12,12,12,12,12,13,13,13,13,13,13,13,13,13,13,13,13,13,13,13,13,13,14,14,14,14,14,14,14,14,14,14,14,14,14,14,14,14,14,14,14,14,14,14,14,14,14,15,15,15,15,15,15,15,15,15,15,15,16,16,16,16,16,16,16,16,16,16,16,16,16,16,16,16,16,16,17,17,17,17,17,17,17,17,17,17,17,17,17,17,17,17,18,18,18,18,18,18,18,18,18,18,18,18,18,19,19,19,19,19,19,19,19,19,19,19,19,19,19,19,19,19,20,20,20,20,20,20,20,20,20,20,20,20,21,21,21,21,21,21,21,21,21,21,21,21,21,21,22,22,22,22,22,22,22,22,22,22,22,22,22,22,22,22,23,23,23,23,23,23,23,23,23,23,23,23,23,23,23,24,24,24,24,24,24,24,24,24,24,24,24,24,24,24,25,25,25,25,25,25,25,25,25,25,25,25,25,26,26,26,26,26,26,26,26,26,26,27,27,27,27,27,27,27,27,27,27,27,28,28,28,28,28,29,29,29,29,29,29,29,29,29,29,30,30,30,30,30,30,30,31,31,31,31,31,31,31,31,31,32,32,32,32,32,32,32,33,33,33,33,33,33,33,34,34,34,34,34,35,35,35,35,35,36,36,37,37,37,38,38,39,39,40];
unsucc = [3,4,5,6,7,8,12,13,15,16,17,18,22,24,26,28,30,36,4,6,9,10,11,13,14,16,20,25,27,32,33,5,7,8,9,10,11,12,14,15,17,19,20,21,23,25,27,28,29,30,34,6,7,8,9,10,11,12,13,14,15,16,17,19,20,21,23,25,27,28,29,30,32,33,34,35,7,8,9,10,11,12,14,15,16,17,19,20,21,23,25,27,28,29,30,32,33,34,35,8,9,10,11,12,13,14,15,16,17,18,19,20,21,22,23,25,26,27,28,29,32,33,34,35,39,9,10,11,13,14,16,20,25,27,32,33,11,12,13,15,16,17,18,19,21,22,24,26,28,30,36,11,12,13,14,15,16,17,18,19,21,22,24,26,28,30,33,36,38,12,13,14,15,16,17,18,20,21,22,23,24,25,26,27,28,30,32,34,36,37,38,40,13,14,16,20,23,25,27,32,33,14,15,16,17,19,20,21,23,25,27,28,29,30,32,33,34,35,15,16,17,18,19,20,21,22,23,24,25,26,27,28,29,30,31,32,34,35,36,37,38,39,40,16,17,20,21,23,25,27,28,32,33,34,17,18,19,20,21,23,25,26,27,28,29,30,33,34,36,37,38,40,18,19,20,22,23,24,25,26,27,28,30,32,33,36,37,38,19,20,21,23,25,27,28,29,30,32,33,34,35,20,21,22,23,24,25,26,27,28,30,32,33,34,36,37,38,40,21,22,24,25,26,28,30,33,36,37,38,40,22,23,24,25,26,27,28,30,32,33,36,37,38,40,23,25,26,27,28,29,30,32,33,34,35,36,37,38,39,40,24,25,26,27,28,29,30,31,32,33,36,37,38,40,41,25,26,27,28,29,30,32,33,34,35,36,37,38,39,40,26,27,28,29,30,31,33,34,36,37,38,40,41,27,28,29,30,31,32,33,34,35,41,28,29,30,31,33,34,36,37,38,40,41,29,30,31,32,33,30,32,33,34,35,36,37,38,39,40,31,32,33,34,35,39,41,32,33,34,35,36,37,38,39,40,33,34,36,37,38,40,41,34,35,36,37,38,39,40,36,37,38,40,41,36,37,38,40,41,39,41,38,39,41,39,41,40,41,41];

USEFUL_RES = [{},
	{3,4,5,7,9,12,15,16,17,18,21,23,25,27,30},
	{1,2,3,4,5,6,7,8,9,10,11,12,13,14,15,16,17,18,19,20,21,22,23,24,25,26,27,28,29,30},
	{1,2,3,4,5,6,7,8,9,10,11,12,13,14,15,16,17,18,19,20,21,22,23,24,25,26,27,28,29,30},
	{1,2,4,5,7,8,9,10,11,12,13,14,15,16,17,18,19,21,22,23,26,27,28,29,30},
	{1,2,3,4,5,7,8,9,10,11,12,13,14,15,16,17,18,19,21,22,23,25,26,27,28,29,30},
	{3,4,5,6,7,9,10,11,12,13,14,15,16,17,18,19,20,21,23,24,25,27,30},
	{1,2,3,4,5,7,8,10,11,12,13,14,15,17,18,19,21,22,23,25,26,27,28,29,30},
	{1,2,3,4,5,6,7,8,9,10,11,12,13,14,15,16,17,18,19,20,21,22,23,24,25,26,27,28,29,30},
	{4,5,6,7,9,10,11,12,13,14,15,16,18,19,20,21,23,24,25,27,30},
	{1,2,3,4,5,6,7,8,9,10,11,12,13,14,15,16,17,18,19,20,21,22,23,24,25,26,27,28,29,30},
	{1,2,3,4,5,6,7,8,10,11,12,13,14,15,16,17,18,19,20,21,22,23,24,25,26,27,28,29,30},
	{3,4,5,7,9,12,15,16,17,18,21,23,25,27,30},
	{1,2,3,4,5,6,7,8,9,10,11,12,13,14,15,16,17,18,19,20,21,22,23,24,25,26,27,28,29,30},
	{1,2,4,6,7,8,10,11,12,13,14,15,16,17,18,19,20,21,22,23,24,25,26,27,28,29,30},
	{3,4,5,6,7,10,11,12,13,14,15,16,17,18,19,20,21,23,24,25,27,30},
	{1,2,3,4,5,6,7,8,10,11,12,13,14,15,16,17,18,19,20,21,22,23,24,25,26,27,28,29,30},
	{1,2,3,4,5,6,7,8,10,11,12,13,14,15,16,17,18,19,20,21,22,23,24,25,26,27,28,29,30},
	{4,5,6,7,9,10,11,12,13,14,15,16,18,19,20,21,23,24,25,27,30},
	{1,2,3,4,5,6,7,8,9,10,11,12,13,14,15,16,17,18,19,20,21,22,23,24,25,26,27,28,29,30},
	{1,2,4,5,6,7,8,9,10,11,12,13,14,15,16,17,18,19,20,21,22,23,24,25,26,27,28,29,30},
	{1,2,4,5,7,8,9,10,11,12,13,14,15,16,17,18,19,21,22,23,26,27,28,29,30},
	{1,2,4,5,6,7,8,9,10,11,12,13,14,15,16,17,18,19,20,21,22,23,24,25,26,27,28,29,30},
	{1,2,3,4,5,7,8,9,10,11,12,13,14,15,16,17,18,19,21,22,23,25,26,27,28,29,30},
	{1,2,4,5,6,7,8,9,10,11,12,13,14,15,16,17,18,19,20,21,22,23,24,25,26,27,28,29,30},
	{1,2,3,4,5,6,7,8,9,10,11,12,13,14,15,16,17,18,19,20,21,22,23,24,25,26,27,28,29,30},
	{1,2,3,4,5,6,7,8,9,10,11,12,13,14,15,16,17,18,19,20,21,22,23,24,25,26,27,28,29,30},
	{1,2,3,4,5,6,7,8,9,10,11,12,13,14,15,16,17,18,19,20,21,22,23,24,25,26,27,28,29,30},
	{1,2,3,4,5,6,7,8,10,11,12,13,14,15,16,17,18,19,20,21,22,23,24,25,26,27,28,29,30},
	{1,2,4,5,6,7,8,9,10,11,12,13,14,15,16,17,18,19,20,21,22,23,24,25,26,27,28,29,30},
	{4,5,6,7,9,10,11,12,13,14,15,16,18,19,20,21,23,24,25,27,30},
	{1,2,4,5,6,7,8,9,10,11,12,13,14,15,16,17,18,19,20,21,22,23,24,25,26,27,28,29,30},
	{1,2,4,5,7,8,9,10,11,12,13,14,15,16,17,18,19,21,22,23,26,27,28,29,30},
	{1,2,3,4,5,6,7,8,9,10,11,12,13,14,15,16,17,18,19,20,21,22,23,24,25,26,27,28,29,30},
	{1,2,3,4,5,6,7,8,9,10,11,12,13,14,15,16,17,18,19,20,21,22,23,24,25,26,27,28,29,30},
	{3,4,5,6,7,9,10,11,12,13,14,15,16,17,18,19,20,21,23,24,25,27,30},
	{1,2,4,5,6,7,8,9,10,11,12,13,14,15,16,17,18,19,20,21,22,23,24,25,26,27,28,29,30},
	{1,2,4,6,7,8,10,11,12,13,14,15,16,17,18,19,20,21,22,23,24,25,26,27,28,29,30},
	{1,2,3,4,5,6,7,8,9,10,11,12,13,14,15,16,17,18,19,20,21,22,23,24,25,26,27,28,29,30},
	{1,2,3,4,5,6,7,8,9,10,11,12,13,14,15,16,17,18,19,20,21,22,23,24,25,26,27,28,29,30},
	{1,2,4,5,7,8,9,10,11,12,13,14,15,16,17,18,19,21,22,23,26,27,28,29,30},
	{}];

POTENTIAL_ACT = [{3,4,5,6,8,9,11,12,14,15,17,18,20,21,22,23,24,25,26,27,28,29,30,32,33,34,35,37,38,39,40,41},
	{3,4,5,6,8,9,11,12,14,15,17,18,20,21,22,23,24,25,26,27,28,29,30,32,33,34,35,37,38,39,40,41},
	{2,3,4,6,7,8,9,11,12,13,14,16,17,18,20,24,26,27,28,29,34,35,36,39,40},
	{2,3,4,5,6,7,8,9,10,11,12,13,14,15,16,17,18,19,20,21,22,23,24,25,26,27,28,29,30,31,32,33,34,35,36,37,38,39,40,41},
	{2,3,4,5,6,7,8,9,10,11,12,13,14,16,17,18,19,20,21,22,23,24,25,26,27,28,29,30,31,32,33,34,35,36,37,39,40,41},
	{3,4,7,9,10,11,12,14,15,16,17,18,19,20,21,23,25,26,27,28,29,30,31,32,34,35,36,37,38,39,40},
	{2,3,4,5,6,7,8,9,10,11,12,13,14,15,16,17,18,19,20,21,22,23,24,25,26,27,28,29,30,31,32,33,34,35,36,37,38,39,40,41},
	{3,4,5,6,8,9,11,12,14,15,17,18,20,21,22,23,24,25,26,27,28,29,30,32,33,34,35,37,38,39,40,41},
	{2,3,4,5,6,7,9,10,11,13,14,19,20,21,22,23,24,25,26,27,28,30,31,32,33,34,35,36,37,39,40,41},
	{3,4,5,6,7,8,9,10,11,12,14,15,16,17,18,19,20,21,22,23,24,25,26,27,28,29,30,31,32,33,34,35,36,37,38,39,40,41},
	{3,4,5,6,7,8,9,10,11,12,14,15,16,17,18,19,20,21,22,23,24,25,26,27,28,29,30,31,32,33,34,35,36,37,38,39,40,41},
	{2,3,4,5,6,7,8,9,10,11,12,13,14,15,16,17,18,19,20,21,22,23,24,25,26,27,28,29,30,31,32,33,34,35,36,37,38,39,40,41},
	{3,4,5,6,7,8,9,10,11,12,14,15,16,17,18,19,20,21,22,23,24,25,26,27,28,29,30,31,32,33,34,35,36,37,38,39,40,41},
	{3,4,5,6,7,8,9,10,11,12,14,15,16,17,18,19,20,21,22,23,24,25,26,27,28,29,30,31,32,33,34,35,36,37,38,39,40,41},
	{2,3,4,5,6,7,8,9,10,11,12,13,14,15,16,17,18,19,20,21,22,23,24,25,26,27,28,29,30,31,32,33,34,35,36,37,38,39,40,41},
	{2,3,4,5,6,7,9,10,11,12,13,14,15,16,17,18,19,20,21,22,23,24,25,26,27,28,29,30,31,32,33,34,35,36,37,38,39,40,41},
	{2,3,4,5,6,7,8,9,11,12,13,14,15,16,17,18,20,21,22,23,24,25,26,27,28,29,30,32,33,34,35,36,37,38,39,40,41},
	{2,3,4,5,6,7,8,9,10,11,12,13,14,15,16,17,18,19,20,21,22,23,24,25,26,27,28,29,30,31,32,33,34,35,36,37,38,39,40,41},
	{3,4,5,6,7,8,9,10,11,12,14,15,16,17,18,19,20,21,22,23,24,25,26,27,28,29,30,31,32,33,34,35,36,37,38,39,40,41},
	{3,4,7,9,10,11,12,14,15,16,17,18,19,20,21,23,25,26,27,28,29,30,31,32,34,35,36,37,38,39,40},
	{2,3,4,5,6,7,8,9,10,11,12,13,14,15,16,17,18,19,20,21,22,23,24,25,26,27,28,29,30,31,32,33,34,35,36,37,38,39,40,41},
	{3,4,5,6,8,9,11,12,14,15,17,18,20,21,22,23,24,25,26,27,28,29,30,32,33,34,35,37,38,39,40,41},
	{2,3,4,5,6,7,8,9,10,11,12,13,14,15,16,17,18,19,20,21,22,23,24,25,26,27,28,29,30,31,32,33,34,35,36,37,38,39,40,41},
	{3,4,7,9,10,11,12,14,15,16,17,18,19,20,21,23,25,26,27,28,29,30,31,32,34,35,36,37,38,39,40},
	{2,3,4,6,7,8,9,10,11,12,13,14,15,16,17,18,19,20,21,23,24,25,26,27,28,29,30,31,32,34,35,36,37,38,39,40},
	{3,4,5,6,8,9,11,12,14,15,17,18,20,21,22,23,24,25,26,27,28,29,30,32,33,34,35,37,38,39,40,41},
	{2,3,4,5,6,7,8,9,10,11,12,13,14,15,16,17,18,19,20,21,22,23,24,25,26,27,28,29,30,31,32,33,34,35,36,37,38,39,40,41},
	{3,4,5,6,8,9,11,12,14,15,17,18,20,21,22,23,24,25,26,27,28,29,30,32,33,34,35,37,38,39,40,41},
	{3,4,5,6,8,9,11,12,14,15,17,18,20,21,22,23,24,25,26,27,28,29,30,32,33,34,35,37,38,39,40,41},
	{2,3,4,5,6,7,8,9,10,11,12,13,14,15,16,17,18,19,20,21,22,23,24,25,26,27,28,29,30,31,32,33,34,35,36,37,38,39,40,41}];
